c User generated cnf file
p cnf 8 22
5 4 -2 0 
4 4 -2 0 
-8 3 7 0 
5 5 -1 0 
7 6 -3 0 
4 -7 4 0 
4 -1 1 0 
6 -8 1 0 
-6 5 8 0 
6 -4 6 0 
5 3 -8 0 
8 1 -6 0 
8 -6 6 0 
7 3 -7 0 
-8 6 3 0 
8 -7 2 0 
8 -1 6 0 
2 -8 8 0 
6 8 -8 0 
1 5 -4 0 
5 3 -7 0 
3 5 -4 0 
